(set-logic ALL)
(declare-fun var0 () String)
(assert (str.in_re var0 (re.++ (re.union (re.+ (str.to_re "0")) (re.+ (str.to_re "1"))) (re.++ (re.union (re.* (str.to_re "2")) (re.* (str.to_re "3"))) (re.++ (re.* (re.* (str.to_re "4"))) (re.++ (re.union (re.+ (str.to_re "55")) (re.* (str.to_re "66"))) (re.++ (re.* (re.* (str.to_re "77"))) (re.++ (re.+ (re.union (str.to_re "888") (str.to_re "9"))) (re.++ (re.+ (re.+ (str.to_re "aa"))) (re.++ (re.+ (re.union (str.to_re "b") (str.to_re "c"))) (re.++ (re.union (re.union (str.to_re "d") (str.to_re "eee")) (re.union (str.to_re "fff") (str.to_re "gg"))) (re.++ (re.+ (re.* (str.to_re "hh"))) (re.++ (re.union (re.* (str.to_re "ii")) (re.* (str.to_re "jj"))) (re.++ (re.* (re.* (str.to_re "k"))) (re.++ (re.+ (re.* (str.to_re "l"))) (re.++ (re.union (re.union (str.to_re "mmm") (str.to_re "n")) (re.+ (str.to_re "o"))) (re.++ (re.union (re.+ (str.to_re "p")) (re.+ (str.to_re "q"))) (re.++ (re.union (re.union (str.to_re "r") (str.to_re "sss")) (re.* (str.to_re "ttt"))) (re.++ (re.+ (re.union (str.to_re "uu") (str.to_re "vvv"))) (re.++ (re.* (re.union (str.to_re "w") (str.to_re "xx"))) (re.++ (re.+ (re.+ (str.to_re "yyy"))) (re.++ (re.+ (re.* (str.to_re "z"))) (re.++ (re.* (re.+ (str.to_re "AAA"))) (re.++ (re.* (re.union (str.to_re "B") (str.to_re "CC"))) (re.++ (re.union (re.union (str.to_re "D") (str.to_re "E")) (re.* (str.to_re "F"))) (re.++ (re.* (re.* (str.to_re "GG"))) (re.++ (re.+ (re.union (str.to_re "HHH") (str.to_re "II"))) (re.++ (re.* (re.union (str.to_re "J") (str.to_re "KKK"))) (re.++ (re.* (re.union (str.to_re "LLL") (str.to_re "MM"))) (re.++ (re.* (re.+ (str.to_re "NN"))) (re.++ (re.union (re.+ (str.to_re "OOO")) (re.union (str.to_re "P") (str.to_re "QQQ"))) (re.++ (re.+ (re.* (str.to_re "RR"))) (re.++ (re.* (re.* (str.to_re "SS"))) (re.++ (re.union (re.union (str.to_re "T") (str.to_re "U")) (re.+ (str.to_re "VV"))) (re.+ (re.* (str.to_re "W")))))))))))))))))))))))))))))))))))))
(check-sat)